c description: Graph 3-Colorability of graph: 
c generator: CNFgen (0.9.0)
c copyright: (C) 2012-2020 Massimo Lauria <massimo.lauria@uniroma1.it>
c url: https://massimolauria.net/cnfgen
c
p cnf 60 200
1 2 3 0
-1 -2 0
-1 -3 0
-2 -3 0
4 5 6 0
-4 -5 0
-4 -6 0
-5 -6 0
7 8 9 0
-7 -8 0
-7 -9 0
-8 -9 0
10 11 12 0
-10 -11 0
-10 -12 0
-11 -12 0
13 14 15 0
-13 -14 0
-13 -15 0
-14 -15 0
16 17 18 0
-16 -17 0
-16 -18 0
-17 -18 0
19 20 21 0
-19 -20 0
-19 -21 0
-20 -21 0
22 23 24 0
-22 -23 0
-22 -24 0
-23 -24 0
25 26 27 0
-25 -26 0
-25 -27 0
-26 -27 0
28 29 30 0
-28 -29 0
-28 -30 0
-29 -30 0
31 32 33 0
-31 -32 0
-31 -33 0
-32 -33 0
34 35 36 0
-34 -35 0
-34 -36 0
-35 -36 0
37 38 39 0
-37 -38 0
-37 -39 0
-38 -39 0
40 41 42 0
-40 -41 0
-40 -42 0
-41 -42 0
43 44 45 0
-43 -44 0
-43 -45 0
-44 -45 0
46 47 48 0
-46 -47 0
-46 -48 0
-47 -48 0
49 50 51 0
-49 -50 0
-49 -51 0
-50 -51 0
52 53 54 0
-52 -53 0
-52 -54 0
-53 -54 0
55 56 57 0
-55 -56 0
-55 -57 0
-56 -57 0
58 59 60 0
-58 -59 0
-58 -60 0
-59 -60 0
-1 -4 0
-2 -5 0
-3 -6 0
-1 -16 0
-2 -17 0
-3 -18 0
-1 -37 0
-2 -38 0
-3 -39 0
-4 -7 0
-5 -8 0
-6 -9 0
-4 -19 0
-5 -20 0
-6 -21 0
-4 -28 0
-5 -29 0
-6 -30 0
-4 -40 0
-5 -41 0
-6 -42 0
-4 -49 0
-5 -50 0
-6 -51 0
-4 -55 0
-5 -56 0
-6 -57 0
-7 -22 0
-8 -23 0
-9 -24 0
-7 -40 0
-8 -41 0
-9 -42 0
-10 -19 0
-11 -20 0
-12 -21 0
-10 -43 0
-11 -44 0
-12 -45 0
-10 -52 0
-11 -53 0
-12 -54 0
-10 -55 0
-11 -56 0
-12 -57 0
-16 -19 0
-17 -20 0
-18 -21 0
-16 -25 0
-17 -26 0
-18 -27 0
-16 -43 0
-17 -44 0
-18 -45 0
-16 -52 0
-17 -53 0
-18 -54 0
-19 -22 0
-20 -23 0
-21 -24 0
-19 -46 0
-20 -47 0
-21 -48 0
-22 -37 0
-23 -38 0
-24 -39 0
-22 -58 0
-23 -59 0
-24 -60 0
-25 -31 0
-26 -32 0
-27 -33 0
-25 -40 0
-26 -41 0
-27 -42 0
-25 -52 0
-26 -53 0
-27 -54 0
-25 -58 0
-26 -59 0
-27 -60 0
-28 -31 0
-29 -32 0
-30 -33 0
-28 -37 0
-29 -38 0
-30 -39 0
-28 -49 0
-29 -50 0
-30 -51 0
-28 -55 0
-29 -56 0
-30 -57 0
-31 -34 0
-32 -35 0
-33 -36 0
-31 -37 0
-32 -38 0
-33 -39 0
-31 -46 0
-32 -47 0
-33 -48 0
-31 -58 0
-32 -59 0
-33 -60 0
-34 -40 0
-35 -41 0
-36 -42 0
-37 -43 0
-38 -44 0
-39 -45 0
-37 -55 0
-38 -56 0
-39 -57 0
-46 -52 0
-47 -53 0
-48 -54 0
-46 -58 0
-47 -59 0
-48 -60 0